128 78
62 38 103 109 84 40 107 64 82 10 34 89 2 50 124 18 111 99 45 125 49 97 11 9 118 57 108 83 113 85 69 117 67 35 65 71 90 98 14 72 102 96 88 110 3 27 15 13 94 61 7 81 8 51 73 46 54 78 79 37 5 42 6 58 122 63 24 36 23 115 21 41 53 112 29 68 55 17 31 87 12 33 119 52 86 75 4 80 126 104 123 70 43 16 32 127 95 66 76 74 77 120 48 60 106 56 44 101 39 91 19 92 20 1 47 28 59 100 22 114 25 128 26 121 105 93 30 116 
